10
11
11
11
11
11
11
13
13
18
21
21
21
21
23
31
31
31
32
81
82
92
93
93
101
101
101
102
102
103
103
108
110
110
110
111
111
111
111
111
111
111
111
111
112
112
112
112
112
112
112
112
112
113
113
113
113
113
113
113
118
118
118
118
118
118
119
119
119
119
121
121
121
121
121
121
121
121
121
121
121
121
121
121
121
122
122
122
122
122
123
128
128
128
129
129
129
131
131
132
132
132
132
133
139
181
181
181
182
182
182
183
183
188
188
190
191
191
191
191
191
191
191
192
192
193
193
198
201
201
209
210
211
211
211
211
211
211
211
211
211
211
211
211
211
213
213
218
218
218
219
221
221
221
223
228
229
230
231
231
239
239
281
281
281
283
288
289
291
291
291
291
292
292
292
298
299
301
310
310
311
311
311
311
311
312
318
319
319
319
321
329
329
381
382
389
389
391
801
811
811
811
811
812
812
812
819
819
821
823
823
829
903
911
911
911
911
912
912
912
913
918
918
920
920
921
921
922
922
931
981
983
988
1011
1011
1011
1011
1011
1013
1018
1018
1018
1019
1021
1021
1021
1023
1029
1029
1032
1039
1081
1082
1082
1091
1091
1101
1101
1101
1102
1102
1102
1103
1108
1108
1109
1109
1109
1110
1110
1110
1110
1111
1112
1112
1112
1112
1112
1112
1112
1113
1113
1113
1113
1113
1113
1113
1118
1118
1119
1119
1119
1119
1119
1120
1120
1120
1121
1121
1121
1121
1121
1122
1122
1122
1122
1122
1122
1122
1123
1123
1123
1123
1128
1128
1128
1128
1129
1129
1129
1130
1130
1130
1130
1130
1130
1131
1131
1131
1131
1131
1131
1131
1132
1132
1132
1132
1132
1132
1132
1132
1138
1138
1138
1138
1138
1138
1139
1180
1180
1181
1181
1181
1182
1182
1182
1183
1190
1190
1190
1191
1191
1191
1192
1192
1192
1192
1192
1198
1198
1198
1198
1201
1201
1201
1201
1202
1202
1202
1203
1208
1209
1209
1209
1210
1210
1210
1211
1211
1211
1211
1211
1211
1212
1212
1212
1212
1212
1212
1212
1213
1213
1218
1218
1219
1219
1219
1219
1220
1221
1221
1221
1221
1221
1223
1228
1228
1228
1228
1229
1229
1230
1230
1231
1231
1232
1232
1238
1238
1238
1239
1239
1280
1281
1281
1281
1281
1282
1283
1290
1291
1291
1291
1291
1291
1292
1292
1293
1298
1298
1301
1302
1302
1309
1309
1310
1310
1310
1310
1311
1311
1312
1312
1312
1312
1312
1312
1312
1319
1319
1319
1319
1321
1321
1321
1322
1328
1329
1380
1381
1381
1381
1382
1389
1391
1392
1801
1801
1802
1803
1810
1810
1811
1811
1811
1812
1812
1819
1819
1821
1821
1821
1822
1823
1829
1829
1831
1832
1832
1832
1832
1832
1839
1891
1891
1893
1901
1901
1902
1903
1910
1911
1911
1911
1912
1912
1912
1913
1918
1918
1918
1921
1923
1928
1938
1981
1981
2011
2011
2011
2011
2011
2011
2011
2013
2018
2021
2081
2081
2083
2091
2092
2093
2098
2101
2101
2101
2101
2101
2103
2103
2108
2109
2110
2110
2111
2111
2111
2111
2111
2111
2112
2112
2112
2112
2112
2113
2118
2118
2118
2118
2119
2119
2119
2119
2120
2120
2120
2121
2121
2121
2123
2128
2129
2130
2130
2130
2131
2131
2131
2131
2131
2131
2131
2131
2131
2132
2132
2132
2139
2139
2180
2180
2181
2181
2181
2181
2181
2181
2182
2189
2189
2189
2191
2191
2191
2191
2191
2191
2192
2192
2198
2198
2210
2210
2211
2211
2211
2211
2211
2211
2211
2211
2211
2211
2218
2219
2280
2281
2291
2301
2301
2302
2308
2310
2311
2311
2318
2318
2318
2318
2319
2321
2328
2328
2381
2381
2381
2389
2391
2391
2391
2391
2398
2801
2801
2801
2801
2810
2810
2811
2811
2819
2820
2823
2829
2839
2890
2891
2893
2901
2901
2902
2910
2911
2911
2911
2911
2911
2912
2913
2918
2920
2931
2931
2931
2932
2932
2938
2981
2981
3011
3012
3021
3022
3081
3081
3101
3101
3101
3102
3110
3110
3110
3110
3111
3111
3111
3111
3111
3111
3111
3112
3112
3112
3112
3118
3118
3119
3120
3121
3121
3121
3128
3128
3180
3180
3181
3181
3182
3182
3191
3191
3192
3192
3192
3198
3201
3201
3210
3210
3210
3211
3211
3211
3218
3219
3219
3221
3221
3221
3221
3221
3221
3228
3281
3298
3298
3811
3812
3812
3821
3822
3822
3902
3908
3908
3911
3911
3918
3918
3921
3921
3922
3981
3982
3982
8011
8011
8019
8021
8021
8023
8023
8039
8091
8092
8093
8101
8101
8101
8102
8102
8102
8102
8103
8109
8110
8110
8110
8110
8110
8111
8111
8111
8111
8112
8112
8112
8113
8113
8119
8119
8119
8119
8119
8120
8120
8120
8120
8121
8121
8121
8131
8139
8139
8190
8191
8192
8192
8192
8201
8201
8210
8210
8211
8211
8211
8211
8211
8211
8211
8212
8213
8219
8219
8229
8231
8231
8231
8231
8231
8239
8291
8291
8301
8309
8309
8310
8311
8311
8311
8320
8321
8329
8390
8391
8392
8901
8902
8902
8911
8911
8911
8911
8912
8912
8921
8930
8931
8931
8931
8932
8932
9011
9011
9011
9011
9011
9011
9013
9013
9018
9021
9028
9031
9102
9103
9103
9110
9110
9110
9110
9111
9111
9111
9112
9112
9112
9112
9118
9120
9120
9120
9121
9121
9121
9121
9121
9121
9121
9121
9122
9123
9123
9128
9128
9130
9131
9131
9132
9132
9138
9181
9183
9201
9201
9201
9203
9211
9211
9211
9211
9211
9211
9212
9213
9213
9213
9218
9218
9231
9232
9232
9232
9281
9282
9283
9283
9302
9310
9310
9311
9311
9312
9312
9312
9320
9801
9802
9811
9811
9812
9812
9812
9821
9821
9821
9823
9831
